%%%mzn-stat: initTime=0.050130486
%%%mzn-stat: objective=174
%%%mzn-stat: nodes=23237
%%%mzn-stat: restarts=7
%%%mzn-stat: peakDepth=1336
%%%mzn-stat: solveTime=21.59573058
%%%mzn-stat: variables=2362
%%%mzn-stat: propagators=1973
%%%mzn-stat: failures=16657
%%%mzn-stat: propagations=709942
%%%mzn-stat: nogoods=16657
%%%mzn-stat: AverageConflictSize=36.66614636489164
%%%mzn-stat: NumUnitNogoodsLearned=136
%%%mzn-stat: AverageLearnedNogoodLength=122.32899081467251
%%%mzn-stat: AverageBacktrackAmount=0
%%%mzn-stat: AverageLbd=52.477336855376116
%%%mzn-stat-end
maxleg = 174;
succ = array1d(1..150,[120, 10, 44, 40, 71, 46, 144, 24, 146, 23, 81, 122, 43, 134, 55, 127, 119, 84, 53, 85, 41, 145, 34, 35, 5, 75, 72, 59, 110, 39, 139, 52, 29, 7, 107, 147, 16, 123, 38, 3, 66, 6, 126, 12, 92, 89, 49, 15, 133, 113, 82, 135, 130, 2, 148, 141, 111, 17, 70, 9, 138, 8, 125, 142, 11, 18, 101, 79, 48, 128, 140, 54, 90, 98, 1, 80, 65, 106, 32, 58, 13, 118, 136, 76, 109, 96, 103, 100, 26, 131, 31, 112, 102, 99, 62, 93, 105, 30, 51, 61, 69, 91, 25, 95, 33, 129, 64, 37, 116, 68, 77, 57, 114, 150, 21, 73, 124, 87, 28, 78, 88, 137, 83, 115, 121, 117, 22, 67, 45, 94, 149, 63, 56, 132, 42, 86, 14, 143, 36, 108, 60, 74, 20, 97, 50, 19, 27, 47, 104, 4]);
% time elapsed: 28.35 s
----------
%%%mzn-stat: initTime=0.050130486
%%%mzn-stat: objective=137
%%%mzn-stat: nodes=32054
%%%mzn-stat: restarts=7
%%%mzn-stat: peakDepth=1336
%%%mzn-stat: solveTime=32.394429296
%%%mzn-stat: variables=2362
%%%mzn-stat: propagators=1973
%%%mzn-stat: failures=22573
%%%mzn-stat: propagations=948467
%%%mzn-stat: nogoods=22573
%%%mzn-stat: AverageConflictSize=30.536082930935187
%%%mzn-stat: NumUnitNogoodsLearned=136
%%%mzn-stat: AverageLearnedNogoodLength=133.13064280334913
%%%mzn-stat: AverageBacktrackAmount=0
%%%mzn-stat: AverageLbd=51.773091746777126
%%%mzn-stat-end
maxleg = 137;
succ = array1d(1..150,[139, 12, 44, 63, 71, 46, 144, 15, 117, 2, 81, 31, 82, 134, 67, 127, 119, 84, 60, 61, 43, 129, 10, 35, 16, 89, 72, 59, 110, 39, 114, 52, 29, 6, 86, 147, 140, 107, 38, 137, 21, 23, 126, 14, 78, 7, 49, 47, 148, 91, 65, 135, 130, 1, 149, 141, 106, 17, 53, 9, 73, 131, 40, 142, 11, 18, 128, 79, 101, 146, 108, 26, 8, 98, 54, 80, 111, 92, 32, 30, 13, 118, 136, 76, 109, 123, 103, 100, 34, 95, 113, 120, 121, 99, 55, 85, 105, 58, 51, 102, 70, 93, 77, 90, 33, 45, 64, 37, 138, 68, 112, 57, 75, 150, 41, 20, 124, 87, 28, 5, 96, 125, 83, 115, 88, 66, 22, 48, 145, 94, 104, 122, 56, 132, 42, 74, 3, 143, 36, 25, 69, 24, 116, 97, 50, 19, 27, 62, 133, 4]);
% time elapsed: 39.16 s
----------
==========
% time elapsed: 39.17 s
%%%mzn-stat: initTime=0.050130486
%%%mzn-stat: objective=137
%%%mzn-stat: nodes=32054
%%%mzn-stat: restarts=7
%%%mzn-stat: peakDepth=1336
%%%mzn-stat: solveTime=32.394447743
%%%mzn-stat: variables=2362
%%%mzn-stat: propagators=1973
%%%mzn-stat: failures=22573
%%%mzn-stat: propagations=948467
%%%mzn-stat: nogoods=22573
%%%mzn-stat: AverageConflictSize=30.536082930935187
%%%mzn-stat: NumUnitNogoodsLearned=136
%%%mzn-stat: AverageLearnedNogoodLength=133.13064280334913
%%%mzn-stat: AverageBacktrackAmount=0
%%%mzn-stat: AverageLbd=51.773091746777126
%%%mzn-stat-end
